10698730
201,200,199,198,196,191,190,192,193,197,189,149,150,148,147,153,152,154,151,146,187,186,188,176,175,173,177,179,180,178,181,194,182,195,171,172,174,185,184,140,139,138,137,141,136,23,22,21,142,143,24,145,144,183,135,134,169,168,163,159,160,165,164,170,133,132,131,125,124,166,167,116,115,114,113,112,100,99,111,94,49,95,96,97,92,93,87,91,86,85,82,83,84,88,90,89,80,81,79,78,77,76,101,155,158,162,157,156,161,121,120,119,122,38,129,128,127,36,126,28,27,26,130,37,117,39,123,118,103,104,105,107,108,106,109,110,98,102,40,41,44,45,43,42,46,47,48,35,34,33,52,51,54,56,59,58,57,60,61,62,64,65,66,67,73,74,75,63,71,70,69,68,72,53,50,29,55,30,31,32,25,19,20,18,11,10,17,16,8,6,5,7,3,4,9,14,13,12,2,15,1,0,201
